p cnf 72 560

 c first condition 
 -1 -2 -3 0 
 -1 -2 -4 0 
 -1 -2 -5 0 
 -1 -2 -6 0 
 -1 -3 -4 0 
 -1 -3 -5 0 
 -1 -3 -6 0 
 -1 -4 -5 0 
 -1 -4 -6 0 
 -1 -5 -6 0 
 -2 -3 -4 0 
 -2 -3 -5 0 
 -2 -3 -6 0 
 -2 -4 -5 0 
 -2 -4 -6 0 
 -2 -5 -6 0 
 -3 -4 -5 0 
 -3 -4 -6 0 
 -3 -5 -6 0 
 -4 -5 -6 0 

 c second condition 
 2 3 4 5 6 0 
 1 3 4 5 6 0 
 1 2 4 5 6 0 
 1 2 3 5 6 0 
 1 2 3 4 6 0 
 1 2 3 4 5 0 

 c third condition 
 -1 -7 -8 0 
 -1 -7 -9 0 
 -1 -7 -10 0 
 -1 -7 -11 0 
 -1 -8 -9 0 
 -1 -8 -10 0 
 -1 -8 -11 0 
 -1 -9 -10 0 
 -1 -9 -11 0 
 -1 -10 -11 0 
 -2 -12 -13 0 
 -2 -12 -14 0 
 -2 -12 -15 0 
 -2 -12 -16 0 
 -2 -13 -14 0 
 -2 -13 -15 0 
 -2 -13 -16 0 
 -2 -14 -15 0 
 -2 -14 -16 0 
 -2 -15 -16 0 
 -3 -17 -18 0 
 -3 -17 -19 0 
 -3 -17 -20 0 
 -3 -17 -21 0 
 -3 -18 -19 0 
 -3 -18 -20 0 
 -3 -18 -21 0 
 -3 -19 -20 0 
 -3 -19 -21 0 
 -3 -20 -21 0 
 -4 -22 -23 0 
 -4 -22 -24 0 
 -4 -22 -25 0 
 -4 -22 -26 0 
 -4 -23 -24 0 
 -4 -23 -25 0 
 -4 -23 -26 0 
 -4 -24 -25 0 
 -4 -24 -26 0 
 -4 -25 -26 0 
 -5 -27 -28 0 
 -5 -27 -29 0 
 -5 -27 -30 0 
 -5 -27 -31 0 
 -5 -28 -29 0 
 -5 -28 -30 0 
 -5 -28 -31 0 
 -5 -29 -30 0 
 -5 -29 -31 0 
 -5 -30 -31 0 
 -6 -32 -33 0 
 -6 -32 -34 0 
 -6 -32 -35 0 
 -6 -32 -36 0 
 -6 -33 -34 0 
 -6 -33 -35 0 
 -6 -33 -36 0 
 -6 -34 -35 0 
 -6 -34 -36 0 
 -6 -35 -36 0 
 -7 -8 -9 0 
 -7 -8 -10 0 
 -7 -8 -11 0 
 -7 -9 -10 0 
 -7 -9 -11 0 
 -7 -10 -11 0 
 -8 -9 -10 0 
 -8 -9 -11 0 
 -8 -10 -11 0 
 -9 -10 -11 0 
 -12 -13 -14 0 
 -12 -13 -15 0 
 -12 -13 -16 0 
 -12 -14 -15 0 
 -12 -14 -16 0 
 -12 -15 -16 0 
 -13 -14 -15 0 
 -13 -14 -16 0 
 -13 -15 -16 0 
 -14 -15 -16 0 
 -17 -18 -19 0 
 -17 -18 -20 0 
 -17 -18 -21 0 
 -17 -19 -20 0 
 -17 -19 -21 0 
 -17 -20 -21 0 
 -18 -19 -20 0 
 -18 -19 -21 0 
 -18 -20 -21 0 
 -19 -20 -21 0 
 -22 -23 -24 0 
 -22 -23 -25 0 
 -22 -23 -26 0 
 -22 -24 -25 0 
 -22 -24 -26 0 
 -22 -25 -26 0 
 -23 -24 -25 0 
 -23 -24 -26 0 
 -23 -25 -26 0 
 -24 -25 -26 0 
 -27 -28 -29 0 
 -27 -28 -30 0 
 -27 -28 -31 0 
 -27 -29 -30 0 
 -27 -29 -31 0 
 -27 -30 -31 0 
 -28 -29 -30 0 
 -28 -29 -31 0 
 -28 -30 -31 0 
 -29 -30 -31 0 
 -32 -33 -34 0 
 -32 -33 -35 0 
 -32 -33 -36 0 
 -32 -34 -35 0 
 -32 -34 -36 0 
 -32 -35 -36 0 
 -33 -34 -35 0 
 -33 -34 -36 0 
 -33 -35 -36 0 
 -34 -35 -36 0 

 c fourth condition 
 7 8 9 10 11 0 
 1 8 9 10 11 0 
 1 7 9 10 11 0 
 1 7 8 10 11 0 
 1 7 8 9 11 0 
 1 7 8 9 10 0 
 12 13 14 15 16 0 
 2 13 14 15 16 0 
 2 12 14 15 16 0 
 2 12 13 15 16 0 
 2 12 13 14 16 0 
 2 12 13 14 15 0 
 17 18 19 20 21 0 
 3 18 19 20 21 0 
 3 17 19 20 21 0 
 3 17 18 20 21 0 
 3 17 18 19 21 0 
 3 17 18 19 20 0 
 22 23 24 25 26 0 
 4 23 24 25 26 0 
 4 22 24 25 26 0 
 4 22 23 25 26 0 
 4 22 23 24 26 0 
 4 22 23 24 25 0 
 27 28 29 30 31 0 
 5 28 29 30 31 0 
 5 27 29 30 31 0 
 5 27 28 30 31 0 
 5 27 28 29 31 0 
 5 27 28 29 30 0 
 32 33 34 35 36 0 
 6 33 34 35 36 0 
 6 32 34 35 36 0 
 6 32 33 35 36 0 
 6 32 33 34 36 0 
 6 32 33 34 35 0 

 c fifth condition 
 -1 -2 -7 0 
 -1 -3 -8 0 
 -1 -4 -9 0 
 -1 -5 -10 0 
 -1 -6 -11 0 
 -2 -3 -13 0 
 -2 -4 -14 0 
 -2 -5 -15 0 
 -2 -6 -16 0 
 -3 -4 -19 0 
 -3 -5 -20 0 
 -3 -6 -21 0 
 -4 -5 -25 0 
 -4 -6 -26 0 
 -5 -6 -31 0 

 c sixth condition 
 -7 12 0 
 -12 7 0 
 -8 17 0 
 -17 8 0 
 -9 22 0 
 -22 9 0 
 -10 27 0 
 -27 10 0 
 -11 32 0 
 -32 11 0 
 -13 18 0 
 -18 13 0 
 -14 23 0 
 -23 14 0 
 -15 28 0 
 -28 15 0 
 -16 33 0 
 -33 16 0 
 -19 24 0 
 -24 19 0 
 -20 29 0 
 -29 20 0 
 -21 34 0 
 -34 21 0 
 -25 30 0 
 -30 25 0 
 -26 35 0 
 -35 26 0 
 -31 36 0 
 -36 31 0 

 c seventh condition 
 -37 -38 0 
 -37 -39 0 
 -37 -40 0 
 -37 -41 0 
 -37 -42 0 
 -38 -39 0 
 -38 -40 0 
 -38 -41 0 
 -38 -42 0 
 -39 -40 0 
 -39 -41 0 
 -39 -42 0 
 -40 -41 0 
 -40 -42 0 
 -41 -42 0 
 -43 -44 0 
 -43 -45 0 
 -43 -46 0 
 -43 -47 0 
 -43 -48 0 
 -44 -45 0 
 -44 -46 0 
 -44 -47 0 
 -44 -48 0 
 -45 -46 0 
 -45 -47 0 
 -45 -48 0 
 -46 -47 0 
 -46 -48 0 
 -47 -48 0 
 -49 -50 0 
 -49 -51 0 
 -49 -52 0 
 -49 -53 0 
 -49 -54 0 
 -50 -51 0 
 -50 -52 0 
 -50 -53 0 
 -50 -54 0 
 -51 -52 0 
 -51 -53 0 
 -51 -54 0 
 -52 -53 0 
 -52 -54 0 
 -53 -54 0 
 -55 -56 0 
 -55 -57 0 
 -55 -58 0 
 -55 -59 0 
 -55 -60 0 
 -56 -57 0 
 -56 -58 0 
 -56 -59 0 
 -56 -60 0 
 -57 -58 0 
 -57 -59 0 
 -57 -60 0 
 -58 -59 0 
 -58 -60 0 
 -59 -60 0 
 -61 -62 0 
 -61 -63 0 
 -61 -64 0 
 -61 -65 0 
 -61 -66 0 
 -62 -63 0 
 -62 -64 0 
 -62 -65 0 
 -62 -66 0 
 -63 -64 0 
 -63 -65 0 
 -63 -66 0 
 -64 -65 0 
 -64 -66 0 
 -65 -66 0 
 -67 -68 0 
 -67 -69 0 
 -67 -70 0 
 -67 -71 0 
 -67 -72 0 
 -68 -69 0 
 -68 -70 0 
 -68 -71 0 
 -68 -72 0 
 -69 -70 0 
 -69 -71 0 
 -69 -72 0 
 -70 -71 0 
 -70 -72 0 
 -71 -72 0 

 c eighth condition 
 37 38 39 40 41 42 0 
 37 38 39 40 41 42 0 
 37 38 39 40 41 42 0 
 37 38 39 40 41 42 0 
 37 38 39 40 41 42 0 
 37 38 39 40 41 42 0 
 43 44 45 46 47 48 0 
 43 44 45 46 47 48 0 
 43 44 45 46 47 48 0 
 43 44 45 46 47 48 0 
 43 44 45 46 47 48 0 
 43 44 45 46 47 48 0 
 49 50 51 52 53 54 0 
 49 50 51 52 53 54 0 
 49 50 51 52 53 54 0 
 49 50 51 52 53 54 0 
 49 50 51 52 53 54 0 
 49 50 51 52 53 54 0 
 55 56 57 58 59 60 0 
 55 56 57 58 59 60 0 
 55 56 57 58 59 60 0 
 55 56 57 58 59 60 0 
 55 56 57 58 59 60 0 
 55 56 57 58 59 60 0 
 61 62 63 64 65 66 0 
 61 62 63 64 65 66 0 
 61 62 63 64 65 66 0 
 61 62 63 64 65 66 0 
 61 62 63 64 65 66 0 
 61 62 63 64 65 66 0 
 67 68 69 70 71 72 0 
 67 68 69 70 71 72 0 
 67 68 69 70 71 72 0 
 67 68 69 70 71 72 0 
 67 68 69 70 71 72 0 
 67 68 69 70 71 72 0 

 c ninth condition 
 -37 -43 0 
 -37 -49 0 
 -37 -55 0 
 -37 -61 0 
 -37 -67 0 
 -38 -44 0 
 -38 -50 0 
 -38 -56 0 
 -38 -62 0 
 -38 -68 0 
 -39 -45 0 
 -39 -51 0 
 -39 -57 0 
 -39 -63 0 
 -39 -69 0 
 -40 -46 0 
 -40 -52 0 
 -40 -58 0 
 -40 -64 0 
 -40 -70 0 
 -41 -47 0 
 -41 -53 0 
 -41 -59 0 
 -41 -65 0 
 -41 -71 0 
 -42 -48 0 
 -42 -54 0 
 -42 -60 0 
 -42 -66 0 
 -42 -72 0 
 -43 -49 0 
 -43 -55 0 
 -43 -61 0 
 -43 -67 0 
 -44 -50 0 
 -44 -56 0 
 -44 -62 0 
 -44 -68 0 
 -45 -51 0 
 -45 -57 0 
 -45 -63 0 
 -45 -69 0 
 -46 -52 0 
 -46 -58 0 
 -46 -64 0 
 -46 -70 0 
 -47 -53 0 
 -47 -59 0 
 -47 -65 0 
 -47 -71 0 
 -48 -54 0 
 -48 -60 0 
 -48 -66 0 
 -48 -72 0 
 -49 -55 0 
 -49 -61 0 
 -49 -67 0 
 -50 -56 0 
 -50 -62 0 
 -50 -68 0 
 -51 -57 0 
 -51 -63 0 
 -51 -69 0 
 -52 -58 0 
 -52 -64 0 
 -52 -70 0 
 -53 -59 0 
 -53 -65 0 
 -53 -71 0 
 -54 -60 0 
 -54 -66 0 
 -54 -72 0 
 -55 -61 0 
 -55 -67 0 
 -56 -62 0 
 -56 -68 0 
 -57 -63 0 
 -57 -69 0 
 -58 -64 0 
 -58 -70 0 
 -59 -65 0 
 -59 -71 0 
 -60 -66 0 
 -60 -72 0 
 -61 -67 0 
 -62 -68 0 
 -63 -69 0 
 -64 -70 0 
 -65 -71 0 
 -66 -72 0 

 c tenth condition 
 -1 -38 0 
 -1 -39 0 
 -1 -40 0 
 -1 -41 0 
 -2 -44 0 
 -2 -45 0 
 -2 -46 0 
 -2 -47 0 
 -3 -50 0 
 -3 -51 0 
 -3 -52 0 
 -3 -53 0 
 -4 -56 0 
 -4 -57 0 
 -4 -58 0 
 -4 -59 0 
 -5 -62 0 
 -5 -63 0 
 -5 -64 0 
 -5 -65 0 
 -6 -68 0 
 -6 -69 0 
 -6 -70 0 
 -6 -71 0 

 c eleventh condition 
 -7 -37 44 0 
 -7 -38 43 45 0 
 -7 -39 44 46 0 
 -7 -40 45 47 0 
 -7 -41 46 48 0 
 -7 -42 47 0 
 -8 -37 50 0 
 -8 -38 49 51 0 
 -8 -39 50 52 0 
 -8 -40 51 53 0 
 -8 -41 52 54 0 
 -8 -42 53 0 
 -9 -37 56 0 
 -9 -38 55 57 0 
 -9 -39 56 58 0 
 -9 -40 57 59 0 
 -9 -41 58 60 0 
 -9 -42 59 0 
 -10 -37 62 0 
 -10 -38 61 63 0 
 -10 -39 62 64 0 
 -10 -40 63 65 0 
 -10 -41 64 66 0 
 -10 -42 65 0 
 -11 -37 68 0 
 -11 -38 67 69 0 
 -11 -39 68 70 0 
 -11 -40 69 71 0 
 -11 -41 70 72 0 
 -11 -42 71 0 
 -13 -43 50 0 
 -13 -44 49 51 0 
 -13 -45 50 52 0 
 -13 -46 51 53 0 
 -13 -47 52 54 0 
 -13 -48 53 0 
 -14 -43 56 0 
 -14 -44 55 57 0 
 -14 -45 56 58 0 
 -14 -46 57 59 0 
 -14 -47 58 60 0 
 -14 -48 59 0 
 -15 -43 62 0 
 -15 -44 61 63 0 
 -15 -45 62 64 0 
 -15 -46 63 65 0 
 -15 -47 64 66 0 
 -15 -48 65 0 
 -16 -43 68 0 
 -16 -44 67 69 0 
 -16 -45 68 70 0 
 -16 -46 69 71 0 
 -16 -47 70 72 0 
 -16 -48 71 0 
 -19 -49 56 0 
 -19 -50 55 57 0 
 -19 -51 56 58 0 
 -19 -52 57 59 0 
 -19 -53 58 60 0 
 -19 -54 59 0 
 -20 -49 62 0 
 -20 -50 61 63 0 
 -20 -51 62 64 0 
 -20 -52 63 65 0 
 -20 -53 64 66 0 
 -20 -54 65 0 
 -21 -49 68 0 
 -21 -50 67 69 0 
 -21 -51 68 70 0 
 -21 -52 69 71 0 
 -21 -53 70 72 0 
 -21 -54 71 0 
 -25 -55 62 0 
 -25 -56 61 63 0 
 -25 -57 62 64 0 
 -25 -58 63 65 0 
 -25 -59 64 66 0 
 -25 -60 65 0 
 -26 -55 68 0 
 -26 -56 67 69 0 
 -26 -57 68 70 0 
 -26 -58 69 71 0 
 -26 -59 70 72 0 
 -26 -60 71 0 
 -31 -61 68 0 
 -31 -62 67 69 0 
 -31 -63 68 70 0 
 -31 -64 69 71 0 
 -31 -65 70 72 0 
 -31 -66 71 0 

 c twelfth condition 
9 0 
10 0 
11 0 
